c "179669.clq"
p edge 100 384
e 1 5
e 1 9
e 1 67
e 2 5
e 2 6
e 2 7
e 2 10
e 2 12
e 2 16
e 2 17
e 2 28
e 2 29
e 2 31
e 2 33
e 2 35
e 2 36
e 2 37
e 2 39
e 2 41
e 2 44
e 2 59
e 2 62
e 2 71
e 2 73
e 2 91
e 2 95
e 2 96
e 3 5
e 3 6
e 3 8
e 3 13
e 3 14
e 3 16
e 3 28
e 3 44
e 3 65
e 3 92
e 3 100
e 4 5
e 4 6
e 4 7
e 4 8
e 4 10
e 4 11
e 4 13
e 4 18
e 4 19
e 4 21
e 4 40
e 4 56
e 4 73
e 5 6
e 5 7
e 5 8
e 5 9
e 5 12
e 5 17
e 5 18
e 5 21
e 5 22
e 5 23
e 5 24
e 5 25
e 5 26
e 5 30
e 5 34
e 5 37
e 5 42
e 5 63
e 5 69
e 5 74
e 5 78
e 5 79
e 5 86
e 5 93
e 5 100
e 6 7
e 6 8
e 6 9
e 6 10
e 6 11
e 6 13
e 6 14
e 6 15
e 6 17
e 6 18
e 6 19
e 6 23
e 6 24
e 6 25
e 6 26
e 6 29
e 6 30
e 6 32
e 6 37
e 6 46
e 6 48
e 6 51
e 6 61
e 6 63
e 6 64
e 6 65
e 6 72
e 6 76
e 6 78
e 6 80
e 6 84
e 6 85
e 6 86
e 7 15
e 7 16
e 7 20
e 7 31
e 7 43
e 7 54
e 7 66
e 7 69
e 8 9
e 8 10
e 8 12
e 8 13
e 8 14
e 8 15
e 8 19
e 8 20
e 8 25
e 8 27
e 8 31
e 8 33
e 8 34
e 8 35
e 8 40
e 8 41
e 8 42
e 8 44
e 8 45
e 8 65
e 8 68
e 8 75
e 8 77
e 8 85
e 8 100
e 9 11
e 9 16
e 9 39
e 9 45
e 9 65
e 9 67
e 9 81
e 10 11
e 10 12
e 10 17
e 10 19
e 10 21
e 10 22
e 10 29
e 10 33
e 10 34
e 10 39
e 10 64
e 10 66
e 10 81
e 10 88
e 10 95
e 10 96
e 11 14
e 11 15
e 11 23
e 11 27
e 11 32
e 11 62
e 11 67
e 11 96
e 12 27
e 12 42
e 13 18
e 13 28
e 13 38
e 13 51
e 13 55
e 13 58
e 13 74
e 13 81
e 13 94
e 13 98
e 14 21
e 14 56
e 14 74
e 14 91
e 16 22
e 16 31
e 16 50
e 16 53
e 16 57
e 16 59
e 16 70
e 17 26
e 17 69
e 18 20
e 18 41
e 18 47
e 18 56
e 18 58
e 18 76
e 18 83
e 19 20
e 19 22
e 19 24
e 19 28
e 19 40
e 19 45
e 19 55
e 19 56
e 19 60
e 19 66
e 19 82
e 19 91
e 19 94
e 20 23
e 20 24
e 20 29
e 20 36
e 20 41
e 20 43
e 20 46
e 20 47
e 20 48
e 20 49
e 20 52
e 20 57
e 20 60
e 20 61
e 20 71
e 20 81
e 20 88
e 21 30
e 21 47
e 21 48
e 21 59
e 21 77
e 21 82
e 21 84
e 21 85
e 21 87
e 22 38
e 22 54
e 22 99
e 23 46
e 23 63
e 24 25
e 24 26
e 24 32
e 24 43
e 24 49
e 24 53
e 24 57
e 24 64
e 24 87
e 24 89
e 24 90
e 25 37
e 25 46
e 25 61
e 25 72
e 25 77
e 25 90
e 26 27
e 26 30
e 26 32
e 26 43
e 27 33
e 27 45
e 27 57
e 27 64
e 27 89
e 28 36
e 28 52
e 29 34
e 29 35
e 29 38
e 29 44
e 29 51
e 29 55
e 29 60
e 29 66
e 29 72
e 29 76
e 29 99
e 30 35
e 30 38
e 30 52
e 30 76
e 30 90
e 30 98
e 31 39
e 31 54
e 31 60
e 31 70
e 32 50
e 32 61
e 32 92
e 32 94
e 33 36
e 33 49
e 33 53
e 33 54
e 33 98
e 34 68
e 34 95
e 35 58
e 36 42
e 36 87
e 36 93
e 37 40
e 37 48
e 37 58
e 37 59
e 37 77
e 37 82
e 38 50
e 38 51
e 38 73
e 38 91
e 40 70
e 40 73
e 40 79
e 40 85
e 40 97
e 41 80
e 42 50
e 42 75
e 43 47
e 43 74
e 43 83
e 43 99
e 43 100
e 44 67
e 44 93
e 45 52
e 45 62
e 46 49
e 47 63
e 47 84
e 48 79
e 49 53
e 49 72
e 49 78
e 49 89
e 50 83
e 50 96
e 52 71
e 52 75
e 52 83
e 52 86
e 52 92
e 54 55
e 54 89
e 55 71
e 55 88
e 56 80
e 56 87
e 58 68
e 58 80
e 60 69
e 60 70
e 60 75
e 60 86
e 61 62
e 61 90
e 62 68
e 62 79
e 62 82
e 62 93
e 69 95
e 69 99
e 70 88
e 71 92
e 73 98
e 75 78
e 75 97
e 77 84
e 77 94
e 78 97
e 84 97
